(declare-fun c_ack!70 () (_ BitVec 64))
(declare-fun a_ack!71 () (_ BitVec 32))
(declare-fun FPCHECK_FMUL_ACCURACY ((_ BitVec 64) (_ BitVec 64)) Bool)
(declare-fun b_ack!69 () (_ BitVec 64))
(assert (not (fp.lt ((_ to_fp 11 53) c_ack!70) ((_ to_fp 11 53) #x0000000000000000))))
(assert (not (bvslt a_ack!71 #x00000000)))
(assert (not (fp.gt ((_ to_fp 11 53) c_ack!70) ((_ to_fp 11 53) #x40862e42fefa39ef))))
(assert (not (= #x00000000 a_ack!71)))
(assert (not (fp.lt ((_ to_fp 11 53) c_ack!70) ((_ to_fp 11 53) #x0000000000000000))))
(assert (not (fp.gt ((_ to_fp 11 53) c_ack!70) ((_ to_fp 11 53) #x40862e42fefa39ef))))
(assert (not (= #x00000000 a_ack!71)))
(assert (= #x00000001 a_ack!71))
(assert (FPCHECK_FMUL_ACCURACY c_ack!70 b_ack!69))

(check-sat)
(exit)
